Traveling Salesman Problem/TSP_generados/Aleatorio1621103125_5.tsp
NAME: Aleatorio1621103125_5.tsp
COMMENT: Randomly generated scenario
TYPE: TSP
DIMENSION: 5
EDGE_WEIGHT_TYPE: ATT
NODE_COORD_SECTION
1 30.39 42.41
2 46.8 12.59
3 25.78 31.73
4 28.3 16.37
5 24.23 42.45
