Traveling Salesman Problem/TSP_generados/Aleatorio1621103125_5.opt.tour
NAME: Aleatorio1621103125_5.opt.tour
COMMENT: Optimal solution for Aleatorio1621103125_5 (85.47622371021136)
TYPE: TOUR
DIMENSION: 5
TOUR_SECTION
1 5 3 4 2
-1
EOF
